language ESSENCE' 1.0

letting length be 4
letting mixed_avoidance_ExplicitR16R18R5R6_1_ExplicitBounded_Length be [3; int(1)]
letting mixed_avoidance_ExplicitR16R18R5R6_1_ExplicitBounded_Values be [[1, 3, 2; int(1..3)]; int(1)]
$ Visualisation for mixed_avoidance_ExplicitR16R18R5R6_1_ExplicitBounded_Values
$ 1 3 2

letting mixed_avoidance_ExplicitR16R18R5R6_2_RelationAsSet_ExplicitVarSizeWithMarker_Marker be [4; int(1)]
letting mixed_avoidance_ExplicitR16R18R5R6_2_RelationAsSet_ExplicitVarSizeWithMarker_Values_1 be
        [[2, 2, 2, 2; int(1..4)]; int(1)]
$ Visualisation for mixed_avoidance_ExplicitR16R18R5R6_2_RelationAsSet_ExplicitVarSizeWithMarker_Values_1
$ 2 2 2 2

letting mixed_avoidance_ExplicitR16R18R5R6_2_RelationAsSet_ExplicitVarSizeWithMarker_Values_2 be
        [[1, 2, 3, 4; int(1..4)]; int(1)]
$ Visualisation for mixed_avoidance_ExplicitR16R18R5R6_2_RelationAsSet_ExplicitVarSizeWithMarker_Values_2
$ 1 2 3 4

letting mixed_avoidance_ExplicitR16R18R5R6_3_ExplicitVarSizeWithDummy be [[1; int(1)]; int(1)]
$ Visualisation for mixed_avoidance_ExplicitR16R18R5R6_3_ExplicitVarSizeWithDummy
$ 1

letting fin1 be 1
letting fin2 be 3
letting fin3 be 1
letting fin4 be 3
letting fin5 be 4
letting fin6 be 2
letting fin7 be 2
letting fin8 be 1
letting fin9 be 4
letting fin10 be 1
letting fin11 be 1
letting fin12 be 1
